p tw 320 1408
1 33
2 34
3 35
4 36
5 37
6 38
7 39
8 40
9 41
10 42
11 43
12 44
13 45
14 46
15 47
16 48
17 49
18 50
19 51
20 52
21 53
22 54
23 55
24 56
25 57
26 58
27 59
28 60
29 61
30 62
31 63
32 64
33 91
33 96
33 140
33 171
33 172
33 173
34 108
34 117
34 130
34 146
34 150
34 153
35 127
35 139
35 151
35 164
35 167
35 170
36 71
36 98
36 103
36 104
36 105
36 106
37 87
37 93
37 94
37 95
37 96
37 97
38 66
38 82
38 83
38 84
38 85
38 86
39 65
39 66
39 67
39 68
39 69
39 70
40 89
40 104
40 129
40 132
40 133
40 134
41 65
41 77
41 78
41 79
41 80
41 81
42 113
42 132
42 138
42 143
42 154
42 156
43 111
43 115
43 116
43 117
43 118
43 119
44 85
44 95
44 161
44 167
44 168
44 169
45 74
45 147
45 157
45 160
45 161
45 162
46 84
46 90
46 142
46 143
46 144
46 145
47 105
47 144
47 158
47 172
47 174
47 176
48 69
48 118
48 121
48 136
48 163
48 166
49 78
49 88
49 107
49 108
49 109
49 110
50 101
50 112
50 116
50 150
50 151
50 152
51 87
51 88
51 89
51 90
51 91
51 92
52 77
52 98
52 99
52 100
52 101
52 102
53 79
53 124
53 125
53 126
53 127
53 128
54 67
54 94
54 103
54 129
54 130
54 131
55 122
55 133
55 168
55 171
55 174
55 175
56 75
56 148
56 160
56 163
56 164
56 165
57 100
57 115
57 124
57 135
57 136
57 137
58 83
58 125
58 138
58 139
58 140
58 141
59 107
59 126
59 146
59 147
59 148
59 149
60 73
60 80
60 120
60 157
60 158
60 159
61 68
61 109
61 135
61 142
61 154
61 155
62 72
62 93
62 120
62 121
62 122
62 123
63 71
63 72
63 73
63 74
63 75
63 76
64 82
64 99
64 111
64 112
64 113
64 114
65 66
65 67
65 68
65 69
65 70
65 77
65 78
65 79
65 80
65 81
66 67
66 68
66 69
66 70
66 82
66 83
66 84
66 85
66 86
67 68
67 69
67 70
67 94
67 103
67 129
67 130
67 131
68 69
68 70
68 109
68 135
68 142
68 154
68 155
69 70
69 118
69 121
69 136
69 163
69 166
70 177
70 178
70 179
70 180
70 181
70 182
71 72
71 73
71 74
71 75
71 76
71 98
71 103
71 104
71 105
71 106
72 73
72 74
72 75
72 76
72 93
72 120
72 121
72 122
72 123
73 74
73 75
73 76
73 80
73 120
73 157
73 158
73 159
74 75
74 76
74 147
74 157
74 160
74 161
74 162
75 76
75 148
75 160
75 163
75 164
75 165
76 183
76 184
76 185
76 186
76 187
76 188
77 78
77 79
77 80
77 81
77 98
77 99
77 100
77 101
77 102
78 79
78 80
78 81
78 88
78 107
78 108
78 109
78 110
79 80
79 81
79 124
79 125
79 126
79 127
79 128
80 81
80 120
80 157
80 158
80 159
81 177
81 189
81 190
81 191
81 192
81 193
82 83
82 84
82 85
82 86
82 99
82 111
82 112
82 113
82 114
83 84
83 85
83 86
83 125
83 138
83 139
83 140
83 141
84 85
84 86
84 90
84 142
84 143
84 144
84 145
85 86
85 95
85 161
85 167
85 168
85 169
86 178
86 194
86 195
86 196
86 197
86 198
87 88
87 89
87 90
87 91
87 92
87 93
87 94
87 95
87 96
87 97
88 89
88 90
88 91
88 92
88 107
88 108
88 109
88 110
89 90
89 91
89 92
89 104
89 129
89 132
89 133
89 134
90 91
90 92
90 142
90 143
90 144
90 145
91 92
91 96
91 140
91 171
91 172
91 173
92 199
92 200
92 201
92 202
92 203
92 204
93 94
93 95
93 96
93 97
93 120
93 121
93 122
93 123
94 95
94 96
94 97
94 103
94 129
94 130
94 131
95 96
95 97
95 161
95 167
95 168
95 169
96 97
96 140
96 171
96 172
96 173
97 199
97 205
97 206
97 207
97 208
97 209
98 99
98 100
98 101
98 102
98 103
98 104
98 105
98 106
99 100
99 101
99 102
99 111
99 112
99 113
99 114
100 101
100 102
100 115
100 124
100 135
100 136
100 137
101 102
101 112
101 116
101 150
101 151
101 152
102 189
102 210
102 211
102 212
102 213
102 214
103 104
103 105
103 106
103 129
103 130
103 131
104 105
104 106
104 129
104 132
104 133
104 134
105 106
105 144
105 158
105 172
105 174
105 176
106 183
106 210
106 215
106 216
106 217
106 218
107 108
107 109
107 110
107 126
107 146
107 147
107 148
107 149
108 109
108 110
108 117
108 130
108 146
108 150
108 153
109 110
109 135
109 142
109 154
109 155
110 190
110 200
110 219
110 220
110 221
110 222
111 112
111 113
111 114
111 115
111 116
111 117
111 118
111 119
112 113
112 114
112 116
112 150
112 151
112 152
113 114
113 132
113 138
113 143
113 154
113 156
114 194
114 211
114 223
114 224
114 225
114 226
115 116
115 117
115 118
115 119
115 124
115 135
115 136
115 137
116 117
116 118
116 119
116 150
116 151
116 152
117 118
117 119
117 130
117 146
117 150
117 153
118 119
118 121
118 136
118 163
118 166
119 223
119 227
119 228
119 229
119 230
119 231
120 121
120 122
120 123
120 157
120 158
120 159
121 122
121 123
121 136
121 163
121 166
122 123
122 133
122 168
122 171
122 174
122 175
123 184
123 205
123 232
123 233
123 234
123 235
124 125
124 126
124 127
124 128
124 135
124 136
124 137
125 126
125 127
125 128
125 138
125 139
125 140
125 141
126 127
126 128
126 146
126 147
126 148
126 149
127 128
127 139
127 151
127 164
127 167
127 170
128 191
128 236
128 237
128 238
128 239
128 240
129 130
129 131
129 132
129 133
129 134
130 131
130 146
130 150
130 153
131 179
131 206
131 215
131 241
131 242
131 243
132 133
132 134
132 138
132 143
132 154
132 156
133 134
133 168
133 171
133 174
133 175
134 201
134 216
134 241
134 244
134 245
134 246
135 136
135 137
135 142
135 154
135 155
136 137
136 163
136 166
137 212
137 227
137 236
137 247
137 248
137 249
138 139
138 140
138 141
138 143
138 154
138 156
139 140
139 141
139 151
139 164
139 167
139 170
140 141
140 171
140 172
140 173
141 195
141 237
141 250
141 251
141 252
141 253
142 143
142 144
142 145
142 154
142 155
143 144
143 145
143 154
143 156
144 145
144 158
144 172
144 174
144 176
145 196
145 202
145 254
145 255
145 256
145 257
146 147
146 148
146 149
146 150
146 153
147 148
147 149
147 157
147 160
147 161
147 162
148 149
148 160
148 163
148 164
148 165
149 219
149 238
149 258
149 259
149 260
149 261
150 151
150 152
150 153
151 152
151 164
151 167
151 170
152 213
152 224
152 228
152 262
152 263
152 264
153 220
153 229
153 242
153 258
153 262
153 265
154 155
154 156
155 180
155 221
155 247
155 254
155 266
155 267
156 225
156 244
156 250
156 255
156 266
156 268
157 158
157 159
157 160
157 161
157 162
158 159
158 172
158 174
158 176
159 185
159 192
159 232
159 269
159 270
159 271
160 161
160 162
160 163
160 164
160 165
161 162
161 167
161 168
161 169
162 186
162 259
162 269
162 272
162 273
162 274
163 164
163 165
163 166
164 165
164 167
164 170
165 187
165 260
165 272
165 275
165 276
165 277
166 181
166 230
166 233
166 248
166 275
166 278
167 168
167 169
167 170
168 169
168 171
168 174
168 175
169 197
169 207
169 273
169 279
169 280
169 281
170 239
170 251
170 263
170 276
170 279
170 282
171 172
171 173
171 174
171 175
172 173
172 174
172 176
173 203
173 208
173 252
173 283
173 284
173 285
174 175
174 176
175 234
175 245
175 280
175 283
175 286
175 287
176 217
176 256
176 270
176 284
176 286
176 288
177 178
177 179
177 180
177 181
177 182
177 189
177 190
177 191
177 192
177 193
178 179
178 180
178 181
178 182
178 194
178 195
178 196
178 197
178 198
179 180
179 181
179 182
179 206
179 215
179 241
179 242
179 243
180 181
180 182
180 221
180 247
180 254
180 266
180 267
181 182
181 230
181 233
181 248
181 275
181 278
182 314
183 184
183 185
183 186
183 187
183 188
183 210
183 215
183 216
183 217
183 218
184 185
184 186
184 187
184 188
184 205
184 232
184 233
184 234
184 235
185 186
185 187
185 188
185 192
185 232
185 269
185 270
185 271
186 187
186 188
186 259
186 269
186 272
186 273
186 274
187 188
187 260
187 272
187 275
187 276
187 277
188 290
189 190
189 191
189 192
189 193
189 210
189 211
189 212
189 213
189 214
190 191
190 192
190 193
190 200
190 219
190 220
190 221
190 222
191 192
191 193
191 236
191 237
191 238
191 239
191 240
192 193
192 232
192 269
192 270
192 271
193 312
194 195
194 196
194 197
194 198
194 211
194 223
194 224
194 225
194 226
195 196
195 197
195 198
195 237
195 250
195 251
195 252
195 253
196 197
196 198
196 202
196 254
196 255
196 256
196 257
197 198
197 207
197 273
197 279
197 280
197 281
198 315
199 200
199 201
199 202
199 203
199 204
199 205
199 206
199 207
199 208
199 209
200 201
200 202
200 203
200 204
200 219
200 220
200 221
200 222
201 202
201 203
201 204
201 216
201 241
201 244
201 245
201 246
202 203
202 204
202 254
202 255
202 256
202 257
203 204
203 208
203 252
203 283
203 284
203 285
204 302
205 206
205 207
205 208
205 209
205 232
205 233
205 234
205 235
206 207
206 208
206 209
206 215
206 241
206 242
206 243
207 208
207 209
207 273
207 279
207 280
207 281
208 209
208 252
208 283
208 284
208 285
209 316
210 211
210 212
210 213
210 214
210 215
210 216
210 217
210 218
211 212
211 213
211 214
211 223
211 224
211 225
211 226
212 213
212 214
212 227
212 236
212 247
212 248
212 249
213 214
213 224
213 228
213 262
213 263
213 264
214 301
215 216
215 217
215 218
215 241
215 242
215 243
216 217
216 218
216 241
216 244
216 245
216 246
217 218
217 256
217 270
217 284
217 286
217 288
218 317
219 220
219 221
219 222
219 238
219 258
219 259
219 260
219 261
220 221
220 222
220 229
220 242
220 258
220 262
220 265
221 222
221 247
221 254
221 266
221 267
222 304
223 224
223 225
223 226
223 227
223 228
223 229
223 230
223 231
224 225
224 226
224 228
224 262
224 263
224 264
225 226
225 244
225 250
225 255
225 266
225 268
226 289
227 228
227 229
227 230
227 231
227 236
227 247
227 248
227 249
228 229
228 230
228 231
228 262
228 263
228 264
229 230
229 231
229 242
229 258
229 262
229 265
230 231
230 233
230 248
230 275
230 278
231 310
232 233
232 234
232 235
232 269
232 270
232 271
233 234
233 235
233 248
233 275
233 278
234 235
234 245
234 280
234 283
234 286
234 287
235 291
236 237
236 238
236 239
236 240
236 247
236 248
236 249
237 238
237 239
237 240
237 250
237 251
237 252
237 253
238 239
238 240
238 258
238 259
238 260
238 261
239 240
239 251
239 263
239 276
239 279
239 282
240 300
241 242
241 243
241 244
241 245
241 246
242 243
242 258
242 262
242 265
243 299
244 245
244 246
244 250
244 255
244 266
244 268
245 246
245 280
245 283
245 286
245 287
246 313
247 248
247 249
247 254
247 266
247 267
248 249
248 275
248 278
249 296
250 251
250 252
250 253
250 255
250 266
250 268
251 252
251 253
251 263
251 276
251 279
251 282
252 253
252 283
252 284
252 285
253 295
254 255
254 256
254 257
254 266
254 267
255 256
255 257
255 266
255 268
256 257
256 270
256 284
256 286
256 288
257 307
258 259
258 260
258 261
258 262
258 265
259 260
259 261
259 269
259 272
259 273
259 274
260 261
260 272
260 275
260 276
260 277
261 294
262 263
262 264
262 265
263 264
263 276
263 279
263 282
264 303
265 319
266 267
266 268
267 292
268 311
269 270
269 271
269 272
269 273
269 274
270 271
270 284
270 286
270 288
271 293
272 273
272 274
272 275
272 276
272 277
273 274
273 279
273 280
273 281
274 308
275 276
275 277
275 278
276 277
276 279
276 282
277 297
278 305
279 280
279 281
279 282
280 281
280 283
280 286
280 287
281 309
282 318
283 284
283 285
283 286
283 287
284 285
284 286
284 288
285 320
286 287
286 288
287 298
288 306
